Route #1: 17 58 69 67 43 21 24 52 1
Route #2: 72 38 56 47 65 27 2
Route #3: 49 75 37 70 30 5 63
Route #4: 29 57 7 32 76 51
Route #5: 8 22 71 15 12 34 46
Route #6: 45 31 73 3 20 54 62
Route #7: 9 19 28 74 4 13 48 39 61
Route #8: 50 33 55 35 59 36 14 41
Route #9: 42 25 10 68 18 16 66 60 6
Route #10: 53 40 64 11 26 44 23 77
Cost 1267